# Pour granular particles into chute container, then induce flow
echo both
atom_style      granular
atom_modify     map array
communicate     single vel yes

boundary        f f f
newton          off

units           si

region          reg block 0 0.05 0 0.05 0 0.2 units box
create_box      2 reg

neighbor        0.001 bin
neigh_modify    delay 0


# Material properties required for granular pair styles

fix             m1 all property/global youngsModulus peratomtype 5.e7 1.e7
fix             m2 all property/global poissonsRatio peratomtype 0.25 0.25
fix             m3 all property/global coefficientRestitution peratomtypepair 2 0.5 0.5 0.5 0.5
fix             m4 all property/global coefficientFriction peratomtypepair 2 0.5 0.5 0.5 0.5


# pair style
pair_style  gran model hertz tangential history # Hertzian without cohesion
pair_coeff  * *

# timestep, gravity
timestep    0.00001
fix         gravi all gravity 9.81 vector 0.0 0.0 -1.0

# walls
fix zwalls1 all wall/gran model hertz tangential history primitive type 1 zplane 0.0
fix zwalls2 all wall/gran model hertz tangential history primitive type 1 zplane 0.2
fix xwalls1 all wall/gran model hertz tangential history primitive type 1 xplane 0.0
fix xwalls2 all wall/gran model hertz tangential history primitive type 1 xplane 0.05
fix ywalls1 all wall/gran model hertz tangential history primitive type 1 yplane 0.0
fix ywalls2 all wall/gran model hertz tangential history primitive type 1 yplane 0.05
#fix cfdmesh all mesh/surface file ../CFD/mesh.stl type 1 
#fix walls all wall/gran model hertz tangential history mesh n_meshes 1 meshes cfdmesh

region          sand block 0 0.05 0 0.05 0 0.06
fix     pts1 all particletemplate/sphere 123457 atom_type 1 density constant 2500 radius constant 0.001 
fix     pdd1 all particledistribution/discrete 17903 1 pts1 1.0
fix     ins all insert/pack seed 86028157 distributiontemplate pdd1 vel constant 0. 0. 0.0 insert_every once overlapcheck yes particles_in_region 10000 region sand

region          sand1 block 0 0.05 0 0.05 0.15 0.17
fix     pts2 all particletemplate/sphere 32452843 atom_type 2 density constant 7800 radius constant 0.01
fix     pdd2 all particledistribution/discrete 86028121 1 pts2 1.0
fix     ins2 all insert/pack seed 49979687 distributiontemplate pdd2 vel constant 0. 0. 0.0 insert_every once overlapcheck yes particles_in_region 1 region sand1 



# apply nve integration to all particles that are inserted as single particles
fix     integr all nve/sphere



# insert the first particles so that dump is not empty
#run         1

dump	dmp all custom/vtk 200 post/sand_output_*.vtk id type type x y z ix iy iz vx vy vz fx fy fz omegax omegay omegaz radius


#write_restart   post/restart/liggghts.restart
run             200000 upto
